 proc title ; proc chmatrix occasions= 7 groups= 2 etype= Live Nodes= 101 ICMeans NoHist hist= 55 ;
 time interval 1 1 1 1 1 1 ;
glabel(1)=sexFemale;
glabel(2)=sexMale;
 0000001 0 17;
 0000001 22 0;
 0000010 0 11;
 0000010 12 0;
 0000011 0 12;
 0000011 11 0;
 0000100 0 9;
 0000100 7 0;
 0000110 0 3;
 0000110 6 0;
 0000111 0 10;
 0000111 6 0;
 0001000 0 6;
 0001000 10 0;
 0001001 0 1;
 0001001 1 0;
 0001011 1 0;
 0001100 0 6;
 0001100 5 0;
 0001110 0 3;
 0001110 4 0;
 0001111 0 6;
 0001111 2 0;
 0010000 0 11;
 0010000 18 0;
 0010110 0 1;
 0011000 0 8;
 0011000 4 0;
 0011100 0 4;
 0011100 2 0;
 0011110 0 1;
 0011110 1 0;
 0011111 2 0;
 0100000 0 11;
 0100000 18 0;
 0110000 0 7;
 0110000 4 0;
 0110110 1 0;
 0111000 0 1;
 0111000 1 0;
 0111100 0 1;
 0111100 2 0;
 0111110 1 0;
 0111111 2 0;
 1000000 0 5;
 1000000 4 0;
 1010000 0 1;
 1010000 1 0;
 1100000 0 4;
 1100000 2 0;
 1101110 1 0;
 1111000 0 1;
 1111000 1 0;
 1111100 1 0;
 1111110 0 1;
proc estimate link=Logit NOLOOP varest=2ndPart    ;
model={ Phi(~cohort + time)p(~sex + time) };
group=1 Phi    rows=6 cols=6 Triang ;
1 2 3 4 5 6 ;
7 8 9 10 11 ;
12 13 14 15 ;
16 17 18 ;
19 20 ;
21 ;
group=2 Phi    rows=6 cols=6 Triang ;
1 2 3 4 5 6 ;
7 8 9 10 11 ;
12 13 14 15 ;
16 17 18 ;
19 20 ;
21 ;
group=1 p    rows=6 cols=6 Triang ;
22 23 24 25 26 27 ;
23 24 25 26 27 ;
24 25 26 27 ;
25 26 27 ;
26 27 ;
27 ;
group=2 p    rows=6 cols=6 Triang ;
28 29 30 31 32 33 ;
29 30 31 32 33 ;
30 31 32 33 ;
31 32 33 ;
32 33 ;
33 ;
design matrix constraints=33 covariates=18;
1 0 0 0 0 0 0 0 0 0 0 0 0 0 0 0 0 0;
1 0 0 0 0 0 1 0 0 0 0 0 0 0 0 0 0 0;
1 0 0 0 0 0 0 1 0 0 0 0 0 0 0 0 0 0;
1 0 0 0 0 0 0 0 1 0 0 0 0 0 0 0 0 0;
1 0 0 0 0 0 0 0 0 1 0 0 0 0 0 0 0 0;
1 0 0 0 0 0 0 0 0 0 1 0 0 0 0 0 0 0;
1 1 0 0 0 0 1 0 0 0 0 0 0 0 0 0 0 0;
1 1 0 0 0 0 0 1 0 0 0 0 0 0 0 0 0 0;
1 1 0 0 0 0 0 0 1 0 0 0 0 0 0 0 0 0;
1 1 0 0 0 0 0 0 0 1 0 0 0 0 0 0 0 0;
1 1 0 0 0 0 0 0 0 0 1 0 0 0 0 0 0 0;
1 0 1 0 0 0 0 1 0 0 0 0 0 0 0 0 0 0;
1 0 1 0 0 0 0 0 1 0 0 0 0 0 0 0 0 0;
1 0 1 0 0 0 0 0 0 1 0 0 0 0 0 0 0 0;
1 0 1 0 0 0 0 0 0 0 1 0 0 0 0 0 0 0;
1 0 0 1 0 0 0 0 1 0 0 0 0 0 0 0 0 0;
1 0 0 1 0 0 0 0 0 1 0 0 0 0 0 0 0 0;
1 0 0 1 0 0 0 0 0 0 1 0 0 0 0 0 0 0;
1 0 0 0 1 0 0 0 0 1 0 0 0 0 0 0 0 0;
1 0 0 0 1 0 0 0 0 0 1 0 0 0 0 0 0 0;
1 0 0 0 0 1 0 0 0 0 1 0 0 0 0 0 0 0;
0 0 0 0 0 0 0 0 0 0 0 1 0 0 0 0 0 0;
0 0 0 0 0 0 0 0 0 0 0 1 0 1 0 0 0 0;
0 0 0 0 0 0 0 0 0 0 0 1 0 0 1 0 0 0;
0 0 0 0 0 0 0 0 0 0 0 1 0 0 0 1 0 0;
0 0 0 0 0 0 0 0 0 0 0 1 0 0 0 0 1 0;
0 0 0 0 0 0 0 0 0 0 0 1 0 0 0 0 0 1;
0 0 0 0 0 0 0 0 0 0 0 1 1 0 0 0 0 0;
0 0 0 0 0 0 0 0 0 0 0 1 1 1 0 0 0 0;
0 0 0 0 0 0 0 0 0 0 0 1 1 0 1 0 0 0;
0 0 0 0 0 0 0 0 0 0 0 1 1 0 0 1 0 0;
0 0 0 0 0 0 0 0 0 0 0 1 1 0 0 0 1 0;
0 0 0 0 0 0 0 0 0 0 0 1 1 0 0 0 0 1;
blabel(1)=Phi:(Intercept);
blabel(2)=Phi:cohort1982;
blabel(3)=Phi:cohort1983;
blabel(4)=Phi:cohort1984;
blabel(5)=Phi:cohort1985;
blabel(6)=Phi:cohort1986;
blabel(7)=Phi:time1982;
blabel(8)=Phi:time1983;
blabel(9)=Phi:time1984;
blabel(10)=Phi:time1985;
blabel(11)=Phi:time1986;
blabel(12)=p:(Intercept);
blabel(13)=p:sexMale;
blabel(14)=p:time1983;
blabel(15)=p:time1984;
blabel(16)=p:time1985;
blabel(17)=p:time1986;
blabel(18)=p:time1987;
rlabel(1)=Phi gFemale c1981 a0 t1981;
rlabel(2)=Phi gFemale c1981 a1 t1982;
rlabel(3)=Phi gFemale c1981 a2 t1983;
rlabel(4)=Phi gFemale c1981 a3 t1984;
rlabel(5)=Phi gFemale c1981 a4 t1985;
rlabel(6)=Phi gFemale c1981 a5 t1986;
rlabel(7)=Phi gFemale c1982 a0 t1982;
rlabel(8)=Phi gFemale c1982 a1 t1983;
rlabel(9)=Phi gFemale c1982 a2 t1984;
rlabel(10)=Phi gFemale c1982 a3 t1985;
rlabel(11)=Phi gFemale c1982 a4 t1986;
rlabel(12)=Phi gFemale c1983 a0 t1983;
rlabel(13)=Phi gFemale c1983 a1 t1984;
rlabel(14)=Phi gFemale c1983 a2 t1985;
rlabel(15)=Phi gFemale c1983 a3 t1986;
rlabel(16)=Phi gFemale c1984 a0 t1984;
rlabel(17)=Phi gFemale c1984 a1 t1985;
rlabel(18)=Phi gFemale c1984 a2 t1986;
rlabel(19)=Phi gFemale c1985 a0 t1985;
rlabel(20)=Phi gFemale c1985 a1 t1986;
rlabel(21)=Phi gFemale c1986 a0 t1986;
rlabel(22)=p gFemale c1981 a1 t1982;
rlabel(23)=p gFemale c1981 a2 t1983;
rlabel(24)=p gFemale c1981 a3 t1984;
rlabel(25)=p gFemale c1981 a4 t1985;
rlabel(26)=p gFemale c1981 a5 t1986;
rlabel(27)=p gFemale c1981 a6 t1987;
rlabel(28)=p gMale c1981 a1 t1982;
rlabel(29)=p gMale c1981 a2 t1983;
rlabel(30)=p gMale c1981 a3 t1984;
rlabel(31)=p gMale c1981 a4 t1985;
rlabel(32)=p gMale c1981 a5 t1986;
rlabel(33)=p gMale c1981 a6 t1987;
proc stop;
